(set-info :Origin "This instance was generated by: BanditFuzz-- an RL fuzzer for SMT solvers" )
(set-info :Author "Joe Scott, Fed Mora, Vijay Ganesh" )
(set-info :Contact "Joe Scott, joseph.scott@uwaterloo.ca")
(set-logic QF_BV)
(declare-const bool_0 Bool)
(declare-const bool_1 Bool)
(declare-const bool_2 Bool)
(declare-const bool_3 Bool)
(declare-const bool_4 Bool)
(declare-const bv_0 (_ BitVec 32))
(declare-const bv_1 (_ BitVec 32))
(declare-const bv_2 (_ BitVec 32))
(declare-const bv_3 (_ BitVec 32))
(declare-const bv_4 (_ BitVec 32))
(assert (bvuge (bvsub (bvxor #xaa051c79  bv_3) (bvashr bv_3 #x1d8cd64b )) (bvxor (bvmul bv_1 #x105a3084 ) (bvmul #x945e53c2  bv_2))))
(assert (or (or (bvule bv_1 bv_0) (bvugt #x03d28457  #x49f7fbc9 )) (bvuge (bvnor #xc9588e73  bv_0) (bvand bv_2 bv_4))))
(assert (and (=> (xor bool_0 bool_4) (bvult bv_0 #xb89c21b3 )) (and (=> bool_0 bool_2) (xor true true))))
(assert (bvsgt (bvudiv (bvnand bv_3 #x72b6fe1b ) (bvnor bv_2 #x3673bd66 )) (bvsrem (bvsmod #x5b2b0ce5  bv_2) (bvmul bv_3 bv_2))))
(assert (not (bvuge (bvsrem #x8af181b0  #xbfa2f48d ) (bvnand #x850b48e2  #x312fcc51 ))))
(check-sat)
(exit)
